coords = array2d(1..65, 1..2, [146, 599, 809, 482, 148, 608, 753, 509, 68, 24,
    912, 784, 56, 782, 210, 463, 195, 849, 359, 168, 642, 274, 107,
    257, 419, 89, 713, 776, 633, 929, 505, 143, 451, 871, 693, 204,
    333, 50, 346, 382, 274, 655, 342, 460, 677, 492, 409, 424, 555,
    615, 538, 799, 207, 991, 294, 376, 95, 970, 274, 779, 464, 952,
    474, 467, 926, 165, 550, 959, 65, 481, 372, 345, 888, 610, 197,
    501, 516, 25, 141, 601, 609, 410, 978, 936, 792, 567, 203, 542,
    915, 650, 151, 142, 452, 453, 810, 529, 337, 290, 307, 995, 577,
    833, 328, 313, 878, 713, 940, 811, 990, 856, 662, 476, 798, 57,
    151, 306, 528, 952, 489, 24, 692, 660, 302, 158, 116, 584, 130,
    612, 864, 923]);

n = 65;

